100
1000
200
199
199
199
199
199
199
198
197
196
196
195
195
194
192
191
190
190
190
189
189
189
188
188
187
187
187
186
186
185
184
183
183
182
182
181
181
181
181
181
180
179
179
178
178
178
178
177
177
176
176
176
175
175
175
174
174
173
172
172
171
171
171
170
169
168
168
168
167
167
167
166
166
165
164
164
161
161
161
161
160
160
159
158
157
157
157
156
156
156
156
155
155
155
155
153
153
151
151
150
